param set_len = 46;
param target_sum = 11322418806;
param values := [1] 855462023 [2] 607114747 [3] 513099800 [4] 125411823 [5] 43630646 [6] 668904965 [7] 252851643 [8] 929852859 [9] 199484371 [10] 1060451781 [11] 875620955 [12] 900016217 [13] 907429626 [14] 425656997 [15] 784963903 [16] 490169112 [17] 697694481 [18] 1052124211 [19] 76371655 [20] 39937551 [21] 557463928 [22] 400025982 [23] 1054612708 [24] 719438914 [25] 241910778 [26] 583665393 [27] 723949471 [28] 772456767 [29] 1008068781 [30] 958793973 [31] 158097917 [32] 1020968067 [33] 1013020529 [34] 273483356 [35] 486264877 [36] 75977215 [37] 33215753 [38] 138204540 [39] 435764195 [40] 165708298 [41] 561545942 [42] 801975560 [43] 259957364 [44] 4538867 [45] 813195381 [46] 905637 ;
